NAME: PointSet_Angle_35_5
TYPE: TSP
COMMENT: Points chosen discrete uniformly at random out of ${0, \ldots, 500}^2$.
DIMENSION: 35
EDGE_WEIGHT_TYPE: EUC_2D
NODE_COORD_SECTION
1 275 229
2 4 365
3 138 433
4 6 26
5 341 98
6 461 435
7 445 27
8 136 222
9 59 175
10 197 53
11 346 5
12 111 95
13 235 171
14 2 235
15 364 373
16 4 386
17 349 255
18 497 487
19 435 3
20 259 21
21 101 219
22 456 45
23 494 339
24 14 52
25 13 458
26 352 105
27 210 209
28 448 445
29 380 450
30 179 490
31 68 431
32 375 163
33 185 372
34 397 366
35 375 155
EOF
